time,stress_xx
1,99999975.000006
